c File: flat30_3_0.col
c
c SOURCE: Joseph Culberson (joe@cs.ualberta.ca)
c DESCRIPTION: Quasi-random coloring problem
c              generated with flatness = 0
c                             probability = 0.200
c                             known coloring = 3
c                             random seed = 235347
c              Creation Date:  Fri Nov 29 22:02:08 1996
c Maximum degree = 6 Minimum degree = 0
c
c cnf created by edge2cnf
p cnf 90 300
-1 -2 0
-1 -3 0
-2 -3 0
1 2 3 0
-4 -5 0
-4 -6 0
-5 -6 0
4 5 6 0
-7 -8 0
-7 -9 0
-8 -9 0
7 8 9 0
-10 -11 0
-10 -12 0
-11 -12 0
10 11 12 0
-13 -14 0
-13 -15 0
-14 -15 0
13 14 15 0
-16 -17 0
-16 -18 0
-17 -18 0
16 17 18 0
-19 -20 0
-19 -21 0
-20 -21 0
19 20 21 0
-22 -23 0
-22 -24 0
-23 -24 0
22 23 24 0
-25 -26 0
-25 -27 0
-26 -27 0
25 26 27 0
-28 -29 0
-28 -30 0
-29 -30 0
28 29 30 0
-31 -32 0
-31 -33 0
-32 -33 0
31 32 33 0
-34 -35 0
-34 -36 0
-35 -36 0
34 35 36 0
-37 -38 0
-37 -39 0
-38 -39 0
37 38 39 0
-40 -41 0
-40 -42 0
-41 -42 0
40 41 42 0
-43 -44 0
-43 -45 0
-44 -45 0
43 44 45 0
-46 -47 0
-46 -48 0
-47 -48 0
46 47 48 0
-49 -50 0
-49 -51 0
-50 -51 0
49 50 51 0
-52 -53 0
-52 -54 0
-53 -54 0
52 53 54 0
-55 -56 0
-55 -57 0
-56 -57 0
55 56 57 0
-58 -59 0
-58 -60 0
-59 -60 0
58 59 60 0
-61 -62 0
-61 -63 0
-62 -63 0
61 62 63 0
-64 -65 0
-64 -66 0
-65 -66 0
64 65 66 0
-67 -68 0
-67 -69 0
-68 -69 0
67 68 69 0
-70 -71 0
-70 -72 0
-71 -72 0
70 71 72 0
-73 -74 0
-73 -75 0
-74 -75 0
73 74 75 0
-76 -77 0
-76 -78 0
-77 -78 0
76 77 78 0
-79 -80 0
-79 -81 0
-80 -81 0
79 80 81 0
-82 -83 0
-82 -84 0
-83 -84 0
82 83 84 0
-85 -86 0
-85 -87 0
-86 -87 0
85 86 87 0
-88 -89 0
-88 -90 0
-89 -90 0
88 89 90 0
-37 -4 0
-38 -5 0
-39 -6 0
-61 -4 0
-62 -5 0
-63 -6 0
-64 -4 0
-65 -5 0
-66 -6 0
-85 -4 0
-86 -5 0
-87 -6 0
-31 -7 0
-32 -8 0
-33 -9 0
-46 -7 0
-47 -8 0
-48 -9 0
-73 -7 0
-74 -8 0
-75 -9 0
-76 -7 0
-77 -8 0
-78 -9 0
-82 -7 0
-83 -8 0
-84 -9 0
-37 -10 0
-38 -11 0
-39 -12 0
-40 -10 0
-41 -11 0
-42 -12 0
-49 -10 0
-50 -11 0
-51 -12 0
-64 -10 0
-65 -11 0
-66 -12 0
-79 -10 0
-80 -11 0
-81 -12 0
-31 -13 0
-32 -14 0
-33 -15 0
-49 -13 0
-50 -14 0
-51 -15 0
-52 -13 0
-53 -14 0
-54 -15 0
-67 -13 0
-68 -14 0
-69 -15 0
-82 -13 0
-83 -14 0
-84 -15 0
-43 -16 0
-44 -17 0
-45 -18 0
-55 -16 0
-56 -17 0
-57 -18 0
-58 -16 0
-59 -17 0
-60 -18 0
-76 -16 0
-77 -17 0
-78 -18 0
-85 -16 0
-86 -17 0
-87 -18 0
-88 -16 0
-89 -17 0
-90 -18 0
-31 -19 0
-32 -20 0
-33 -21 0
-37 -19 0
-38 -20 0
-39 -21 0
-40 -19 0
-41 -20 0
-42 -21 0
-73 -19 0
-74 -20 0
-75 -21 0
-79 -19 0
-80 -20 0
-81 -21 0
-40 -22 0
-41 -23 0
-42 -24 0
-55 -22 0
-56 -23 0
-57 -24 0
-52 -25 0
-53 -26 0
-54 -27 0
-61 -25 0
-62 -26 0
-63 -27 0
-73 -25 0
-74 -26 0
-75 -27 0
-76 -25 0
-77 -26 0
-78 -27 0
-52 -28 0
-53 -29 0
-54 -30 0
-55 -28 0
-56 -29 0
-57 -30 0
-79 -28 0
-80 -29 0
-81 -30 0
-82 -28 0
-83 -29 0
-84 -30 0
-61 -31 0
-62 -32 0
-63 -33 0
-79 -31 0
-80 -32 0
-81 -33 0
-82 -31 0
-83 -32 0
-84 -33 0
-61 -34 0
-62 -35 0
-63 -36 0
-64 -34 0
-65 -35 0
-66 -36 0
-67 -40 0
-68 -41 0
-69 -42 0
-73 -40 0
-74 -41 0
-75 -42 0
-85 -40 0
-86 -41 0
-87 -42 0
-67 -43 0
-68 -44 0
-69 -45 0
-73 -43 0
-74 -44 0
-75 -45 0
-82 -43 0
-83 -44 0
-84 -45 0
-61 -46 0
-62 -47 0
-63 -48 0
-73 -46 0
-74 -47 0
-75 -48 0
-76 -46 0
-77 -47 0
-78 -48 0
-82 -49 0
-83 -50 0
-84 -51 0
-79 -52 0
-80 -53 0
-81 -54 0
-85 -52 0
-86 -53 0
-87 -54 0
-76 -55 0
-77 -56 0
-78 -57 0
-88 -55 0
-89 -56 0
-90 -57 0
-85 -58 0
-86 -59 0
-87 -60 0
